NAME: tsp50_5
COMMENT: 50-tsp problem (Padberg/Rinaldi)
TYPE: TSP
DIMENSION: 50
EDGE_WEIGHT_TYPE : EUC_2D
NODE_COORD_SECTION
1 23 2
2 19 15
3 23 13
4 36 20
5 18 32
6 17 37
7 29 36
8 2 2
9 0 9
10 3 35
11 12 5
12 20 8
13 8 17
14 5 24
15 5 23
16 39 28
17 22 21
18 34 12
19 23 29
20 32 7
21 28 8
22 22 9
23 32 18
24 23 22
25 21 14
26 35 11
27 12 36
28 3 36
29 16 35
30 27 8
31 39 13
32 24 15
33 14 36
34 13 39
35 28 18
36 32 18
37 16 11
38 28 10
39 37 24
40 35 10
41 7 24
42 38 15
43 34 34
44 24 40
45 20 9
46 31 36
47 28 5
48 4 8
49 39 9
50 26 39
